RLT02
Position Depot: Random
Horizon for Depot: Large
Position of customers: Random
Distribution of the demand: Large
Width of time windows: Tight
Distribution of the service: Small

VEHICLE 
NUMBER 	 CAPACITY 
 5 	 	 461 
 
CUSTOMER
CUST NO. 	 XCOORD.  	 YCOORD. 	 DEMAND 	 READY TIME 	 DUE DATE 	 SERVICE TIME 
 0 	 	 565 	 	 741 	 	 0 	 	 0 	 	 4802 	 	 0 
  1 	 	 850 	 	 759 	 	 58 	 	 1254 	 	 1454 	 	 73 
  2 	 	 52 	 	 860 	 	 93 	 	 2947 	 	 3087 	 	 78 
  3 	 	 243 	 	 704 	 	 83 	 	 4414 	 	 4541 	 	 55 
  4 	 	 452 	 	 776 	 	 46 	 	 1553 	 	 1644 	 	 58 
  5 	 	 452 	 	 952 	 	 6 	 	 2884 	 	 3079 	 	 71 
  6 	 	 993 	 	 827 	 	 23 	 	 4571 	 	 4746 	 	 80 
  7 	 	 8 	 	 589 	 	 30 	 	 472 	 	 635 	 	 91 
  8 	 	 167 	 	 521 	 	 27 	 	 3194 	 	 3363 	 	 57 
  9 	 	 322 	 	 268 	 	 18 	 	 1319 	 	 1453 	 	 58 
  10 	 	 184 	 	 824 	 	 95 	 	 4279 	 	 4407 	 	 64 
  11 	 	 567 	 	 723 	 	 55 	 	 3750 	 	 3917 	 	 82 
  12 	 	 565 	 	 318 	 	 22 	 	 4169 	 	 4348 	 	 69 
  13 	 	 606 	 	 862 	 	 27 	 	 2269 	 	 2358 	 	 93 
  14 	 	 6 	 	 832 	 	 44 	 	 896 	 	 1054 	 	 74 
  15 	 	 730 	 	 670 	 	 66 	 	 1384 	 	 1546 	 	 78 
  16 	 	 834 	 	 546 	 	 57 	 	 2928 	 	 3030 	 	 53 
  17 	 	 87 	 	 739 	 	 14 	 	 703 	 	 890 	 	 74 
  18 	 	 140 	 	 454 	 	 51 	 	 1404 	 	 1575 	 	 78 
  19 	 	 534 	 	 873 	 	 76 	 	 198 	 	 398 	 	 62 
  20 	 	 969 	 	 999 	 	 76 	 	 3598 	 	 3773 	 	 74 
  21 	 	 297 	 	 934 	 	 45 	 	 1361 	 	 1480 	 	 61 
  22 	 	 898 	 	 794 	 	 4 	 	 4525 	 	 4590 	 	 92 
  23 	 	 66 	 	 998 	 	 71 	 	 1800 	 	 1964 	 	 70 
  24 	 	 452 	 	 343 	 	 96 	 	 757 	 	 906 	 	 53 
  25 	 	 765 	 	 479 	 	 36 	 	 3268 	 	 3437 	 	 71 
  26 	 	 519 	 	 98 	 	 22 	 	 3193 	 	 3381 	 	 77 
  27 	 	 904 	 	 909 	 	 79 	 	 3823 	 	 4002 	 	 59 
  28 	 	 327 	 	 149 	 	 45 	 	 1074 	 	 1173 	 	 64 
  29 	 	 805 	 	 830 	 	 28 	 	 3674 	 	 3763 	 	 56 
  30 	 	 715 	 	 105 	 	 55 	 	 552 	 	 718 	 	 59 
  31 	 	 383 	 	 573 	 	 42 	 	 2218 	 	 2369 	 	 50 
  32 	 	 396 	 	 498 	 	 92 	 	 3584 	 	 3711 	 	 97 
  33 	 	 729 	 	 310 	 	 83 	 	 4653 	 	 4802 	 	 70 
  34 	 	 869 	 	 771 	 	 38 	 	 1388 	 	 1463 	 	 81 
  35 	 	 184 	 	 456 	 	 20 	 	 3718 	 	 3795 	 	 84 
  36 	 	 126 	 	 549 	 	 41 	 	 2503 	 	 2679 	 	 93 
  37 	 	 572 	 	 957 	 	 82 	 	 2694 	 	 2892 	 	 70 
  38 	 	 575 	 	 606 	 	 60 	 	 2561 	 	 2735 	 	 94 
  39 	 	 403 	 	 843 	 	 69 	 	 1740 	 	 1832 	 	 65 
  40 	 	 549 	 	 204 	 	 77 	 	 1977 	 	 2040 	 	 99 
  41 	 	 328 	 	 927 	 	 80 	 	 437 	 	 571 	 	 76 
  42 	 	 965 	 	 30 	 	 45 	 	 2874 	 	 3016 	 	 88 
  43 	 	 609 	 	 902 	 	 85 	 	 3297 	 	 3400 	 	 100 
  44 	 	 923 	 	 874 	 	 37 	 	 1774 	 	 1904 	 	 75 
  45 	 	 715 	 	 393 	 	 86 	 	 1412 	 	 1464 	 	 74 
  46 	 	 666 	 	 923 	 	 45 	 	 1765 	 	 1874 	 	 54 
  47 	 	 842 	 	 626 	 	 41 	 	 3100 	 	 3202 	 	 95 
  48 	 	 892 	 	 300 	 	 13 	 	 3529 	 	 3580 	 	 72 
  49 	 	 95 	 	 827 	 	 53 	 	 1216 	 	 1294 	 	 84 
  50 	 	 809 	 	 750 	 	 23 	 	 2745 	 	 2831 	 	 74 
 